Route #1: 1 2 9 14 10 8 11 4 3 6 1 
Route #2: 1 1 5 7 15 18 1 
Route #3: 1 13 21 17 16 1 
Route #4: 1 12 20 19 1 

Cost 682.625
Time 0.0817


 * Another infos *

 Iterations: 22 Time: 0.0817 sec - 0.0014 min - 0.0000 horas
0.0000 h 0.0014 min
Problem dimension: 22
